language Essence 1.3

letting codeWordLength be 20
letting dist be
        function((1, 1) --> 0, (1, 2) --> 1, (1, 3) --> 4, (1, 4) --> 5, (1, 5) --> 6, (1, 6) --> 4, (1, 7) --> 2,
                 (1, 8) --> 4, (1, 9) --> 0, (2, 1) --> 1, (2, 2) --> 0, (2, 3) --> 4, (2, 4) --> 1, (2, 5) --> 6,
                 (2, 6) --> 3, (2, 7) --> 3, (2, 8) --> 0, (2, 9) --> 4, (3, 1) --> 4, (3, 2) --> 4, (3, 3) --> 0,
                 (3, 4) --> 5, (3, 5) --> 0, (3, 6) --> 0, (3, 7) --> 3, (3, 8) --> 1, (3, 9) --> 1, (4, 1) --> 5,
                 (4, 2) --> 1, (4, 3) --> 5, (4, 4) --> 0, (4, 5) --> 2, (4, 6) --> 6, (4, 7) --> 6, (4, 8) --> 6,
                 (4, 9) --> 2, (5, 1) --> 6, (5, 2) --> 6, (5, 3) --> 0, (5, 4) --> 2, (5, 5) --> 0, (5, 6) --> 5,
                 (5, 7) --> 6, (5, 8) --> 6, (5, 9) --> 3, (6, 1) --> 4, (6, 2) --> 3, (6, 3) --> 0, (6, 4) --> 6,
                 (6, 5) --> 5, (6, 6) --> 0, (6, 7) --> 2, (6, 8) --> 2, (6, 9) --> 4, (7, 1) --> 2, (7, 2) --> 3,
                 (7, 3) --> 3, (7, 4) --> 6, (7, 5) --> 6, (7, 6) --> 2, (7, 7) --> 0, (7, 8) --> 2, (7, 9) --> 3,
                 (8, 1) --> 4, (8, 2) --> 0, (8, 3) --> 1, (8, 4) --> 6, (8, 5) --> 6, (8, 6) --> 2, (8, 7) --> 2,
                 (8, 8) --> 0, (8, 9) --> 0, (9, 1) --> 0, (9, 2) --> 4, (9, 3) --> 1, (9, 4) --> 2, (9, 5) --> 3,
                 (9, 6) --> 4, (9, 7) --> 3, (9, 8) --> 0, (9, 9) --> 0)
letting maxDist be 17
letting minDist be 25
letting nbCharacter be 9
letting numOfCodeWords be 26
